12450
1 1 1 1 1 1 1 1 1 1
8 1 0 9 7 2 9 3 7 8 7 0 0 3 0 7 4 4 0 7 5 0 4 4 7 5 4 1 1 7 4 0 3 3 2 5 3 5 2 7 0 2 4 0 7 5 1 1 7 7 3 1 8 9 8 2 1 6 6 0 5 7 6 8 1 1 6 6 7 0 4 8 8 7 9 0 5 5 7 5 4 5 7 6 6 9 4 2 2 2